000001000110111100010000000000000000000100000000000000000001000000000000011100000100011011110000000000000001111000000000000000000000000001000000000000000000001000000000000001000000000000011100000100011011110000000010001101111000000000000000111100000100000000000001110001000100000000111